17
2x2x2 supercell of B2 TiFe: Ti at cube corner, Fe at body centre; added H at Site_A_Ti_rich_octahedral fractional [0.25, 0.25, 0.0]
Ti  0.00000000  0.00000000  0.00000000
Fe  1.48500000  1.48500000  1.48500000
Ti  0.00000000  0.00000000  2.97000000
Fe  1.48500000  1.48500000  4.45500000
Ti  0.00000000  2.97000000  0.00000000
Fe  1.48500000  4.45500000  1.48500000
Ti  0.00000000  2.97000000  2.97000000
Fe  1.48500000  4.45500000  4.45500000
Ti  2.97000000  0.00000000  0.00000000
Fe  4.45500000  1.48500000  1.48500000
Ti  2.97000000  0.00000000  2.97000000
Fe  4.45500000  1.48500000  4.45500000
Ti  2.97000000  2.97000000  0.00000000
Fe  4.45500000  4.45500000  1.48500000
Ti  2.97000000  2.97000000  2.97000000
Fe  4.45500000  4.45500000  4.45500000
H   1.48500000  1.48500000  0.00000000
