16
2x2x2 supercell of B2 TiFe: Ti at cube corner, Fe at body centre
Ti  0.00000000  0.00000000  0.00000000
Fe  1.48500000  1.48500000  1.48500000
Ti  0.00000000  0.00000000  2.97000000
Fe  1.48500000  1.48500000  4.45500000
Ti  0.00000000  2.97000000  0.00000000
Fe  1.48500000  4.45500000  1.48500000
Ti  0.00000000  2.97000000  2.97000000
Fe  1.48500000  4.45500000  4.45500000
Ti  2.97000000  0.00000000  0.00000000
Fe  4.45500000  1.48500000  1.48500000
Ti  2.97000000  0.00000000  2.97000000
Fe  4.45500000  1.48500000  4.45500000
Ti  2.97000000  2.97000000  0.00000000
Fe  4.45500000  4.45500000  1.48500000
Ti  2.97000000  2.97000000  2.97000000
Fe  4.45500000  4.45500000  4.45500000
