17
2x2x2 supercell of B2 TiFe: Ti at cube corner, Fe at body centre; added H at Site_B_mixed_octahedral fractional [0.25, 0.0, 0.25]
Ti  0.00000000  0.00000000  0.00000000
Fe  1.48500000  1.48500000  1.48500000
Ti  0.00000000  0.00000000  2.97000000
Fe  1.48500000  1.48500000  4.45500000
Ti  0.00000000  2.97000000  0.00000000
Fe  1.48500000  4.45500000  1.48500000
Ti  0.00000000  2.97000000  2.97000000
Fe  1.48500000  4.45500000  4.45500000
Ti  2.97000000  0.00000000  0.00000000
Fe  4.45500000  1.48500000  1.48500000
Ti  2.97000000  0.00000000  2.97000000
Fe  4.45500000  1.48500000  4.45500000
Ti  2.97000000  2.97000000  0.00000000
Fe  4.45500000  4.45500000  1.48500000
Ti  2.97000000  2.97000000  2.97000000
Fe  4.45500000  4.45500000  4.45500000
H   1.48500000  0.00000000  1.48500000
